Input file: instance_9.lp
Input data:
num_squadre(2).
player(1, attaccante, difensore).
player(2, difensore, centrocampista).
player(3, difensore, portiere).
player(4, portiere, centrocampista).
player(5, centrocampista, portiere).
player(6, centrocampista, portiere).
player(7, attaccante, centrocampista).
player(8, attaccante, centrocampista).
player(9, centrocampista, portiere).
player(10, centrocampista, difensore).
player(11, difensore, centrocampista).
player(12, difensore, portiere).
player(13, difensore, centrocampista).
player(14, centrocampista, attaccante).
different_team(1, 2).
different_team(9, 13).

Output Clingo:
clingo version 5.7.1
Reading from ...ed-Reasoning-Project\Clingo\implASP.lp ...
Solving...
Answer: 1
assigned(1,2,difensore) assigned(2,1,centrocampista) assigned(3,1,portiere) assigned(4,1,centrocampista) assigned(5,2,centrocampista) assigned(6,2,portiere) assigned(7,1,centrocampista) assigned(8,2,attaccante) assigned(9,2,centrocampista) assigned(10,2,difensore) assigned(11,1,difensore) assigned(12,1,difensore) assigned(13,1,difensore) assigned(14,1,attaccante) total_penalty(1)
Optimization: 1
Answer: 2
assigned(1,2,difensore) assigned(2,1,centrocampista) assigned(3,2,difensore) assigned(4,1,portiere) assigned(5,1,centrocampista) assigned(6,2,portiere) assigned(7,1,attaccante) assigned(8,1,centrocampista) assigned(9,2,centrocampista) assigned(10,2,centrocampista) assigned(11,1,difensore) assigned(12,2,difensore) assigned(13,1,difensore) assigned(14,2,attaccante) total_penalty(0)
Optimization: 0
Answer: 1
assigned(1,2,difensore) assigned(2,1,centrocampista) assigned(3,2,difensore) assigned(4,1,portiere) assigned(5,1,centrocampista) assigned(6,2,centrocampista) assigned(7,1,centrocampista) assigned(8,1,attaccante) assigned(9,2,centrocampista) assigned(10,2,difensore) assigned(11,1,difensore) assigned(12,2,portiere) assigned(13,1,difensore) assigned(14,2,attaccante) total_penalty(0)
Optimization: 0
OPTIMUM FOUND

Models       : 3+
  Optimum    : yes
Optimization : 0
Calls        : 1
Time         : 0.005s (Solving: 0.00s 1st Model: 0.00s Unsat: 0.00s)
CPU Time     : 0.000s

Tempo di esecuzione Clingo: 0.02 secondi
